p cnf 776 2292
c inputs: 1 2 3 4 5 6 7 8 9 10 11 12
c variables for gates: 13 ... 764
c outputs: 765 766 767 768 769 770 771 772 773 774 775 776
c random input: 1 -2 -3 4 5 -6 7 8 9 -10 -11 -12
13 -4 -10 0
-13 4 0
-13 10 0
14 -5 -10 0
-14 5 0
-14 10 0
15 -6 -10 0
-15 6 0
-15 10 0
16 -4 -11 0
-16 4 0
-16 11 0
17 -5 -11 0
-17 5 0
-17 11 0
18 -6 -11 0
-18 6 0
-18 11 0
19 -4 -12 0
-19 4 0
-19 12 0
20 -5 -12 0
-20 5 0
-20 12 0
21 -6 -12 0
-21 6 0
-21 12 0
22 -16 -14 0
-22 16 0
-22 14 0
23 -14 16 0
-23 14 0
-23 -16 0
24 -16 14 0
-24 16 0
-24 -14 0
25 23 24 0
-25 -23 0
-25 -24 0
26 -15 -17 0
-26 15 0
-26 17 0
27 -15 -19 0
-27 15 0
-27 19 0
28 -19 -17 0
-28 19 0
-28 17 0
29 27 28 0
-29 -27 0
-29 -28 0
30 26 -29 0
-30 -26 0
-30 29 0
31 -17 19 0
-31 17 0
-31 -19 0
32 -19 17 0
-32 19 0
-32 -17 0
33 31 32 0
-33 -31 0
-33 -32 0
34 -15 -33 0
-34 15 0
-34 33 0
35 15 33 0
-35 -15 0
-35 -33 0
36 34 35 0
-36 -34 0
-36 -35 0
37 -18 -20 0
-37 18 0
-37 20 0
38 -18 20 0
-38 18 0
-38 -20 0
39 -20 18 0
-39 20 0
-39 -18 0
40 38 39 0
-40 -38 0
-40 -39 0
41 22 36 0
-41 -22 0
-41 -36 0
42 -22 -36 0
-42 22 0
-42 36 0
43 42 41 0
-43 -42 0
-43 -41 0
44 -22 36 0
-44 22 0
-44 -36 0
45 40 -30 0
-45 -40 0
-45 30 0
46 -40 30 0
-46 40 0
-46 -30 0
47 46 45 0
-47 -46 0
-47 -45 0
48 -44 -47 0
-48 44 0
-48 47 0
49 44 47 0
-49 -44 0
-49 -47 0
50 48 49 0
-50 -48 0
-50 -49 0
51 40 -44 0
-51 -40 0
-51 44 0
52 30 -44 0
-52 -30 0
-52 44 0
53 40 30 0
-53 -40 0
-53 -30 0
54 53 52 0
-54 -53 0
-54 -52 0
55 -54 51 0
-55 54 0
-55 -51 0
56 -21 37 0
-56 21 0
-56 -37 0
57 21 -37 0
-57 -21 0
-57 37 0
58 57 56 0
-58 -57 0
-58 -56 0
59 -58 55 0
-59 58 0
-59 -55 0
60 58 -55 0
-60 -58 0
-60 55 0
61 59 60 0
-61 -59 0
-61 -60 0
62 -21 55 0
-62 21 0
-62 -55 0
63 -37 55 0
-63 37 0
-63 -55 0
64 -21 -37 0
-64 21 0
-64 37 0
65 64 63 0
-65 -64 0
-65 -63 0
66 62 -65 0
-66 -62 0
-66 65 0
67 -1 -7 0
-67 1 0
-67 7 0
68 -2 -7 0
-68 2 0
-68 7 0
69 -3 -7 0
-69 3 0
-69 7 0
70 -1 -8 0
-70 1 0
-70 8 0
71 -2 -8 0
-71 2 0
-71 8 0
72 -3 -8 0
-72 3 0
-72 8 0
73 -1 -9 0
-73 1 0
-73 9 0
74 -2 -9 0
-74 2 0
-74 9 0
75 -3 -9 0
-75 3 0
-75 9 0
76 -68 -70 0
-76 68 0
-76 70 0
77 -68 70 0
-77 68 0
-77 -70 0
78 -70 68 0
-78 70 0
-78 -68 0
79 78 77 0
-79 -78 0
-79 -77 0
80 -71 -69 0
-80 71 0
-80 69 0
81 -69 -73 0
-81 69 0
-81 73 0
82 -71 -73 0
-82 71 0
-82 73 0
83 81 82 0
-83 -81 0
-83 -82 0
84 80 -83 0
-84 -80 0
-84 83 0
85 -71 73 0
-85 71 0
-85 -73 0
86 -73 71 0
-86 73 0
-86 -71 0
87 86 85 0
-87 -86 0
-87 -85 0
88 -69 -87 0
-88 69 0
-88 87 0
89 69 87 0
-89 -69 0
-89 -87 0
90 88 89 0
-90 -88 0
-90 -89 0
91 -74 -72 0
-91 74 0
-91 72 0
92 -72 74 0
-92 72 0
-92 -74 0
93 -74 72 0
-93 74 0
-93 -72 0
94 92 93 0
-94 -92 0
-94 -93 0
95 76 90 0
-95 -76 0
-95 -90 0
96 -76 -90 0
-96 76 0
-96 90 0
97 96 95 0
-97 -96 0
-97 -95 0
98 -76 90 0
-98 76 0
-98 -90 0
99 94 -84 0
-99 -94 0
-99 84 0
100 -94 84 0
-100 94 0
-100 -84 0
101 100 99 0
-101 -100 0
-101 -99 0
102 -98 -101 0
-102 98 0
-102 101 0
103 98 101 0
-103 -98 0
-103 -101 0
104 102 103 0
-104 -102 0
-104 -103 0
105 94 -98 0
-105 -94 0
-105 98 0
106 84 -98 0
-106 -84 0
-106 98 0
107 94 84 0
-107 -94 0
-107 -84 0
108 107 106 0
-108 -107 0
-108 -106 0
109 -108 105 0
-109 108 0
-109 -105 0
110 -75 91 0
-110 75 0
-110 -91 0
111 75 -91 0
-111 -75 0
-111 91 0
112 111 110 0
-112 -111 0
-112 -110 0
113 -112 109 0
-113 112 0
-113 -109 0
114 112 -109 0
-114 -112 0
-114 109 0
115 114 113 0
-115 -114 0
-115 -113 0
116 -75 109 0
-116 75 0
-116 -109 0
117 -91 109 0
-117 91 0
-117 -109 0
118 -75 -91 0
-118 75 0
-118 91 0
119 118 117 0
-119 -118 0
-119 -117 0
120 116 -119 0
-120 -116 0
-120 119 0
121 -4 1 0
-121 4 0
-121 -1 0
122 -1 4 0
-122 1 0
-122 -4 0
123 122 121 0
-123 -122 0
-123 -121 0
124 -5 2 0
-124 5 0
-124 -2 0
125 -2 5 0
-125 2 0
-125 -5 0
126 125 124 0
-126 -125 0
-126 -124 0
127 -1 -4 0
-127 1 0
-127 4 0
128 127 126 0
-128 -127 0
-128 -126 0
129 -127 -126 0
-129 127 0
-129 126 0
130 128 129 0
-130 -128 0
-130 -129 0
131 -2 -5 0
-131 2 0
-131 5 0
132 -1 -4 0
-132 1 0
-132 4 0
133 -5 -132 0
-133 5 0
-133 132 0
134 -1 -4 0
-134 1 0
-134 4 0
135 -2 -134 0
-135 2 0
-135 134 0
136 135 133 0
-136 -135 0
-136 -133 0
137 131 -136 0
-137 -131 0
-137 136 0
138 -6 3 0
-138 6 0
-138 -3 0
139 -3 6 0
-139 3 0
-139 -6 0
140 139 138 0
-140 -139 0
-140 -138 0
141 140 -137 0
-141 -140 0
-141 137 0
142 -140 137 0
-142 140 0
-142 -137 0
143 141 142 0
-143 -141 0
-143 -142 0
144 -3 -6 0
-144 3 0
-144 6 0
145 -6 137 0
-145 6 0
-145 -137 0
146 -3 137 0
-146 3 0
-146 -137 0
147 146 145 0
-147 -146 0
-147 -145 0
148 144 -147 0
-148 -144 0
-148 147 0
149 -10 7 0
-149 10 0
-149 -7 0
150 -7 10 0
-150 7 0
-150 -10 0
151 149 150 0
-151 -149 0
-151 -150 0
152 -11 8 0
-152 11 0
-152 -8 0
153 -8 11 0
-153 8 0
-153 -11 0
154 153 152 0
-154 -153 0
-154 -152 0
155 -7 -10 0
-155 7 0
-155 10 0
156 155 154 0
-156 -155 0
-156 -154 0
157 -155 -154 0
-157 155 0
-157 154 0
158 156 157 0
-158 -156 0
-158 -157 0
159 -8 -11 0
-159 8 0
-159 11 0
160 -7 -10 0
-160 7 0
-160 10 0
161 -11 -160 0
-161 11 0
-161 160 0
162 -7 -10 0
-162 7 0
-162 10 0
163 -8 -162 0
-163 8 0
-163 162 0
164 163 161 0
-164 -163 0
-164 -161 0
165 159 -164 0
-165 -159 0
-165 164 0
166 -12 9 0
-166 12 0
-166 -9 0
167 -9 12 0
-167 9 0
-167 -12 0
168 167 166 0
-168 -167 0
-168 -166 0
169 168 -165 0
-169 -168 0
-169 165 0
170 -168 165 0
-170 168 0
-170 -165 0
171 169 170 0
-171 -169 0
-171 -170 0
172 -9 -12 0
-172 9 0
-172 12 0
173 -12 165 0
-173 12 0
-173 -165 0
174 -9 165 0
-174 9 0
-174 -165 0
175 173 174 0
-175 -173 0
-175 -174 0
176 172 -175 0
-176 -172 0
-176 175 0
177 171 143 0
-177 -171 0
-177 -143 0
178 148 171 0
-178 -148 0
-178 -171 0
179 176 143 0
-179 -176 0
-179 -143 0
180 176 148 0
-180 -176 0
-180 -148 0
181 -178 179 0
-181 178 0
-181 -179 0
182 178 -179 0
-182 -178 0
-182 179 0
183 182 181 0
-183 -182 0
-183 -181 0
184 -178 -179 0
-184 178 0
-184 179 0
185 180 -184 0
-185 -180 0
-185 184 0
186 -180 184 0
-186 180 0
-186 -184 0
187 186 185 0
-187 -186 0
-187 -185 0
188 -180 -184 0
-188 180 0
-188 184 0
189 151 123 0
-189 -151 0
-189 -123 0
190 151 130 0
-190 -151 0
-190 -130 0
191 123 158 0
-191 -123 0
-191 -158 0
192 130 158 0
-192 -130 0
-192 -158 0
193 -190 191 0
-193 190 0
-193 -191 0
194 190 -191 0
-194 -190 0
-194 191 0
195 193 194 0
-195 -193 0
-195 -194 0
196 -190 -191 0
-196 190 0
-196 191 0
197 192 -196 0
-197 -192 0
-197 196 0
198 -192 196 0
-198 192 0
-198 -196 0
199 198 197 0
-199 -198 0
-199 -197 0
200 -192 -196 0
-200 192 0
-200 196 0
201 -123 143 0
-201 123 0
-201 -143 0
202 123 -143 0
-202 -123 0
-202 143 0
203 202 201 0
-203 -202 0
-203 -201 0
204 -130 148 0
-204 130 0
-204 -148 0
205 130 -148 0
-205 -130 0
-205 148 0
206 205 204 0
-206 -205 0
-206 -204 0
207 123 143 0
-207 -123 0
-207 -143 0
208 207 206 0
-208 -207 0
-208 -206 0
209 -207 -206 0
-209 207 0
-209 206 0
210 209 208 0
-210 -209 0
-210 -208 0
211 130 148 0
-211 -130 0
-211 -148 0
212 123 143 0
-212 -123 0
-212 -143 0
213 148 -212 0
-213 -148 0
-213 212 0
214 123 143 0
-214 -123 0
-214 -143 0
215 130 -214 0
-215 -130 0
-215 214 0
216 215 213 0
-216 -215 0
-216 -213 0
217 211 -216 0
-217 -211 0
-217 216 0
218 -151 171 0
-218 151 0
-218 -171 0
219 151 -171 0
-219 -151 0
-219 171 0
220 218 219 0
-220 -218 0
-220 -219 0
221 -158 176 0
-221 158 0
-221 -176 0
222 158 -176 0
-222 -158 0
-222 176 0
223 222 221 0
-223 -222 0
-223 -221 0
224 151 171 0
-224 -151 0
-224 -171 0
225 224 223 0
-225 -224 0
-225 -223 0
226 -224 -223 0
-226 224 0
-226 223 0
227 225 226 0
-227 -225 0
-227 -226 0
228 158 176 0
-228 -158 0
-228 -176 0
229 151 171 0
-229 -151 0
-229 -171 0
230 176 -229 0
-230 -176 0
-230 229 0
231 151 171 0
-231 -151 0
-231 -171 0
232 158 -231 0
-232 -158 0
-232 231 0
233 232 230 0
-233 -232 0
-233 -230 0
234 228 -233 0
-234 -228 0
-234 233 0
235 203 220 0
-235 -203 0
-235 -220 0
236 220 210 0
-236 -220 0
-236 -210 0
237 217 220 0
-237 -217 0
-237 -220 0
238 227 203 0
-238 -227 0
-238 -203 0
239 227 210 0
-239 -227 0
-239 -210 0
240 227 217 0
-240 -227 0
-240 -217 0
241 234 203 0
-241 -234 0
-241 -203 0
242 234 210 0
-242 -234 0
-242 -210 0
243 217 234 0
-243 -217 0
-243 -234 0
244 -236 -238 0
-244 236 0
-244 238 0
245 -236 238 0
-245 236 0
-245 -238 0
246 236 -238 0
-246 -236 0
-246 238 0
247 245 246 0
-247 -245 0
-247 -246 0
248 -237 -239 0
-248 237 0
-248 239 0
249 -241 -237 0
-249 241 0
-249 237 0
250 -241 -239 0
-250 241 0
-250 239 0
251 250 249 0
-251 -250 0
-251 -249 0
252 -251 248 0
-252 251 0
-252 -248 0
253 241 -239 0
-253 -241 0
-253 239 0
254 -241 239 0
-254 241 0
-254 -239 0
255 254 253 0
-255 -254 0
-255 -253 0
256 -237 -255 0
-256 237 0
-256 255 0
257 237 255 0
-257 -237 0
-257 -255 0
258 256 257 0
-258 -256 0
-258 -257 0
259 -240 -242 0
-259 240 0
-259 242 0
260 -240 242 0
-260 240 0
-260 -242 0
261 240 -242 0
-261 -240 0
-261 242 0
262 261 260 0
-262 -261 0
-262 -260 0
263 258 244 0
-263 -258 0
-263 -244 0
264 -258 -244 0
-264 258 0
-264 244 0
265 264 263 0
-265 -264 0
-265 -263 0
266 258 -244 0
-266 -258 0
-266 244 0
267 262 -252 0
-267 -262 0
-267 252 0
268 -262 252 0
-268 262 0
-268 -252 0
269 268 267 0
-269 -268 0
-269 -267 0
270 -266 -269 0
-270 266 0
-270 269 0
271 266 269 0
-271 -266 0
-271 -269 0
272 271 270 0
-272 -271 0
-272 -270 0
273 -266 262 0
-273 266 0
-273 -262 0
274 -266 252 0
-274 266 0
-274 -252 0
275 262 252 0
-275 -262 0
-275 -252 0
276 274 275 0
-276 -274 0
-276 -275 0
277 -276 273 0
-277 276 0
-277 -273 0
278 259 -243 0
-278 -259 0
-278 243 0
279 -259 243 0
-279 259 0
-279 -243 0
280 278 279 0
-280 -278 0
-280 -279 0
281 277 -280 0
-281 -277 0
-281 280 0
282 -277 280 0
-282 277 0
-282 -280 0
283 281 282 0
-283 -281 0
-283 -282 0
284 277 -243 0
-284 -277 0
-284 243 0
285 277 -259 0
-285 -277 0
-285 259 0
286 -259 -243 0
-286 259 0
-286 243 0
287 285 286 0
-287 -285 0
-287 -286 0
288 284 -287 0
-288 -284 0
-288 287 0
289 -177 -183 0
-289 177 0
-289 183 0
290 177 183 0
-290 -177 0
-290 -183 0
291 290 289 0
-291 -290 0
-291 -289 0
292 177 -183 0
-292 -177 0
-292 183 0
293 292 -187 0
-293 -292 0
-293 187 0
294 -292 187 0
-294 292 0
-294 -187 0
295 293 294 0
-295 -293 0
-295 -294 0
296 -292 -187 0
-296 292 0
-296 187 0
297 188 296 0
-297 -188 0
-297 -296 0
298 -188 -296 0
-298 188 0
-298 296 0
299 298 297 0
-299 -298 0
-299 -297 0
300 188 -296 0
-300 -188 0
-300 296 0
301 -235 177 0
-301 235 0
-301 -177 0
302 235 -177 0
-302 -235 0
-302 177 0
303 301 302 0
-303 -301 0
-303 -302 0
304 247 -291 0
-304 -247 0
-304 291 0
305 -247 291 0
-305 247 0
-305 -291 0
306 304 305 0
-306 -304 0
-306 -305 0
307 -235 -177 0
-307 235 0
-307 177 0
308 307 306 0
-308 -307 0
-308 -306 0
309 -307 -306 0
-309 307 0
-309 306 0
310 309 308 0
-310 -309 0
-310 -308 0
311 247 291 0
-311 -247 0
-311 -291 0
312 -235 -177 0
-312 235 0
-312 177 0
313 -312 247 0
-313 312 0
-313 -247 0
314 -235 -177 0
-314 235 0
-314 177 0
315 -314 291 0
-315 314 0
-315 -291 0
316 315 313 0
-316 -315 0
-316 -313 0
317 311 -316 0
-317 -311 0
-317 316 0
318 -295 265 0
-318 295 0
-318 -265 0
319 295 -265 0
-319 -295 0
-319 265 0
320 318 319 0
-320 -318 0
-320 -319 0
321 -317 320 0
-321 317 0
-321 -320 0
322 317 -320 0
-322 -317 0
-322 320 0
323 321 322 0
-323 -321 0
-323 -322 0
324 295 265 0
-324 -295 0
-324 -265 0
325 317 265 0
-325 -317 0
-325 -265 0
326 317 295 0
-326 -317 0
-326 -295 0
327 325 326 0
-327 -325 0
-327 -326 0
328 -327 324 0
-328 327 0
-328 -324 0
329 -299 272 0
-329 299 0
-329 -272 0
330 299 -272 0
-330 -299 0
-330 272 0
331 329 330 0
-331 -329 0
-331 -330 0
332 331 -328 0
-332 -331 0
-332 328 0
333 -331 328 0
-333 331 0
-333 -328 0
334 333 332 0
-334 -333 0
-334 -332 0
335 299 272 0
-335 -299 0
-335 -272 0
336 272 328 0
-336 -272 0
-336 -328 0
337 299 328 0
-337 -299 0
-337 -328 0
338 337 336 0
-338 -337 0
-338 -336 0
339 335 -338 0
-339 -335 0
-339 338 0
340 283 -300 0
-340 -283 0
-340 300 0
341 -283 300 0
-341 283 0
-341 -300 0
342 341 340 0
-342 -341 0
-342 -340 0
343 342 -339 0
-343 -342 0
-343 339 0
344 -342 339 0
-344 342 0
-344 -339 0
345 344 343 0
-345 -344 0
-345 -343 0
346 283 300 0
-346 -283 0
-346 -300 0
347 283 339 0
-347 -283 0
-347 -339 0
348 300 339 0
-348 -300 0
-348 -339 0
349 348 347 0
-349 -348 0
-349 -347 0
350 -349 346 0
-350 349 0
-350 -346 0
351 -300 288 0
-351 300 0
-351 -288 0
352 300 -288 0
-352 -300 0
-352 288 0
353 351 352 0
-353 -351 0
-353 -352 0
354 353 -350 0
-354 -353 0
-354 350 0
355 -353 350 0
-355 353 0
-355 -350 0
356 355 354 0
-356 -355 0
-356 -354 0
357 -189 -195 0
-357 189 0
-357 195 0
358 189 195 0
-358 -189 0
-358 -195 0
359 358 357 0
-359 -358 0
-359 -357 0
360 189 -195 0
-360 -189 0
-360 195 0
361 -199 360 0
-361 199 0
-361 -360 0
362 199 -360 0
-362 -199 0
-362 360 0
363 361 362 0
-363 -361 0
-363 -362 0
364 -199 -360 0
-364 199 0
-364 360 0
365 364 200 0
-365 -364 0
-365 -200 0
366 -364 -200 0
-366 364 0
-366 200 0
367 365 366 0
-367 -365 0
-367 -366 0
368 -364 200 0
-368 364 0
-368 -200 0
369 189 303 0
-369 -189 0
-369 -303 0
370 -189 -303 0
-370 189 0
-370 303 0
371 370 369 0
-371 -370 0
-371 -369 0
372 -359 310 0
-372 359 0
-372 -310 0
373 359 -310 0
-373 -359 0
-373 310 0
374 373 372 0
-374 -373 0
-374 -372 0
375 -189 303 0
-375 189 0
-375 -303 0
376 375 374 0
-376 -375 0
-376 -374 0
377 -375 -374 0
-377 375 0
-377 374 0
378 376 377 0
-378 -376 0
-378 -377 0
379 359 310 0
-379 -359 0
-379 -310 0
380 -189 303 0
-380 189 0
-380 -303 0
381 -380 310 0
-381 380 0
-381 -310 0
382 -189 303 0
-382 189 0
-382 -303 0
383 -382 359 0
-383 382 0
-383 -359 0
384 383 381 0
-384 -383 0
-384 -381 0
385 379 -384 0
-385 -379 0
-385 384 0
386 -363 323 0
-386 363 0
-386 -323 0
387 363 -323 0
-387 -363 0
-387 323 0
388 386 387 0
-388 -386 0
-388 -387 0
389 388 -385 0
-389 -388 0
-389 385 0
390 -388 385 0
-390 388 0
-390 -385 0
391 390 389 0
-391 -390 0
-391 -389 0
392 363 323 0
-392 -363 0
-392 -323 0
393 385 323 0
-393 -385 0
-393 -323 0
394 363 385 0
-394 -363 0
-394 -385 0
395 394 393 0
-395 -394 0
-395 -393 0
396 392 -395 0
-396 -392 0
-396 395 0
397 -367 334 0
-397 367 0
-397 -334 0
398 367 -334 0
-398 -367 0
-398 334 0
399 398 397 0
-399 -398 0
-399 -397 0
400 -396 399 0
-400 396 0
-400 -399 0
401 396 -399 0
-401 -396 0
-401 399 0
402 401 400 0
-402 -401 0
-402 -400 0
403 367 334 0
-403 -367 0
-403 -334 0
404 396 334 0
-404 -396 0
-404 -334 0
405 396 367 0
-405 -396 0
-405 -367 0
406 405 404 0
-406 -405 0
-406 -404 0
407 -406 403 0
-407 406 0
-407 -403 0
408 345 -368 0
-408 -345 0
-408 368 0
409 -345 368 0
-409 345 0
-409 -368 0
410 408 409 0
-410 -408 0
-410 -409 0
411 410 -407 0
-411 -410 0
-411 407 0
412 -410 407 0
-412 410 0
-412 -407 0
413 412 411 0
-413 -412 0
-413 -411 0
414 345 368 0
-414 -345 0
-414 -368 0
415 345 407 0
-415 -345 0
-415 -407 0
416 368 407 0
-416 -368 0
-416 -407 0
417 415 416 0
-417 -415 0
-417 -416 0
418 414 -417 0
-418 -414 0
-418 417 0
419 -368 356 0
-419 368 0
-419 -356 0
420 368 -356 0
-420 -368 0
-420 356 0
421 419 420 0
-421 -419 0
-421 -420 0
422 -418 421 0
-422 418 0
-422 -421 0
423 418 -421 0
-423 -418 0
-423 421 0
424 423 422 0
-424 -423 0
-424 -422 0
425 -371 199 0
-425 371 0
-425 -199 0
426 371 -199 0
-426 -371 0
-426 199 0
427 425 426 0
-427 -425 0
-427 -426 0
428 371 199 0
-428 -371 0
-428 -199 0
429 -378 -200 0
-429 378 0
-429 200 0
430 378 200 0
-430 -378 0
-430 -200 0
431 429 430 0
-431 -429 0
-431 -430 0
432 428 431 0
-432 -428 0
-432 -431 0
433 -428 -431 0
-433 428 0
-433 431 0
434 432 433 0
-434 -432 0
-434 -433 0
435 378 -200 0
-435 -378 0
-435 200 0
436 -428 -200 0
-436 428 0
-436 200 0
437 -428 378 0
-437 428 0
-437 -378 0
438 436 437 0
-438 -436 0
-438 -437 0
439 435 -438 0
-439 -435 0
-439 438 0
440 -439 -177 0
-440 439 0
-440 177 0
441 439 177 0
-441 -439 0
-441 -177 0
442 441 440 0
-442 -441 0
-442 -440 0
443 -442 391 0
-443 442 0
-443 -391 0
444 442 -391 0
-444 -442 0
-444 391 0
445 443 444 0
-445 -443 0
-445 -444 0
446 391 -177 0
-446 -391 0
-446 177 0
447 439 391 0
-447 -439 0
-447 -391 0
448 439 -177 0
-448 -439 0
-448 177 0
449 448 447 0
-449 -448 0
-449 -447 0
450 446 -449 0
-450 -446 0
-450 449 0
451 -450 183 0
-451 450 0
-451 -183 0
452 450 -183 0
-452 -450 0
-452 183 0
453 452 451 0
-453 -452 0
-453 -451 0
454 -453 402 0
-454 453 0
-454 -402 0
455 453 -402 0
-455 -453 0
-455 402 0
456 454 455 0
-456 -454 0
-456 -455 0
457 402 183 0
-457 -402 0
-457 -183 0
458 450 402 0
-458 -450 0
-458 -402 0
459 450 183 0
-459 -450 0
-459 -183 0
460 459 458 0
-460 -459 0
-460 -458 0
461 457 -460 0
-461 -457 0
-461 460 0
462 187 -461 0
-462 -187 0
-462 461 0
463 -187 461 0
-463 187 0
-463 -461 0
464 462 463 0
-464 -462 0
-464 -463 0
465 413 -464 0
-465 -413 0
-465 464 0
466 -413 464 0
-466 413 0
-466 -464 0
467 466 465 0
-467 -466 0
-467 -465 0
468 187 413 0
-468 -187 0
-468 -413 0
469 413 461 0
-469 -413 0
-469 -461 0
470 187 461 0
-470 -187 0
-470 -461 0
471 470 469 0
-471 -470 0
-471 -469 0
472 468 -471 0
-472 -468 0
-472 471 0
473 -472 -188 0
-473 472 0
-473 188 0
474 472 188 0
-474 -472 0
-474 -188 0
475 474 473 0
-475 -474 0
-475 -473 0
476 -475 424 0
-476 475 0
-476 -424 0
477 475 -424 0
-477 -475 0
-477 424 0
478 477 476 0
-478 -477 0
-478 -476 0
479 -188 424 0
-479 188 0
-479 -424 0
480 472 424 0
-480 -472 0
-480 -424 0
481 472 -188 0
-481 -472 0
-481 188 0
482 480 481 0
-482 -480 0
-482 -481 0
483 479 -482 0
-483 -479 0
-483 482 0
484 -13 -25 0
-484 13 0
-484 25 0
485 13 25 0
-485 -13 0
-485 -25 0
486 484 485 0
-486 -484 0
-486 -485 0
487 13 -25 0
-487 -13 0
-487 25 0
488 487 -43 0
-488 -487 0
-488 43 0
489 -487 43 0
-489 487 0
-489 -43 0
490 489 488 0
-490 -489 0
-490 -488 0
491 -487 -43 0
-491 487 0
-491 43 0
492 491 -50 0
-492 -491 0
-492 50 0
493 -491 50 0
-493 491 0
-493 -50 0
494 493 492 0
-494 -493 0
-494 -492 0
495 -491 -50 0
-495 491 0
-495 50 0
496 -61 495 0
-496 61 0
-496 -495 0
497 61 -495 0
-497 -61 0
-497 495 0
498 496 497 0
-498 -496 0
-498 -497 0
499 -61 -495 0
-499 61 0
-499 495 0
500 -66 499 0
-500 66 0
-500 -499 0
501 66 -499 0
-501 -66 0
-501 499 0
502 501 500 0
-502 -501 0
-502 -500 0
503 -66 -499 0
-503 66 0
-503 499 0
504 13 -189 0
-504 -13 0
-504 189 0
505 -13 189 0
-505 13 0
-505 -189 0
506 505 504 0
-506 -505 0
-506 -504 0
507 -486 195 0
-507 486 0
-507 -195 0
508 486 -195 0
-508 -486 0
-508 195 0
509 508 507 0
-509 -508 0
-509 -507 0
510 -13 -189 0
-510 13 0
-510 189 0
511 510 509 0
-511 -510 0
-511 -509 0
512 -510 -509 0
-512 510 0
-512 509 0
513 512 511 0
-513 -512 0
-513 -511 0
514 486 195 0
-514 -486 0
-514 -195 0
515 -13 -189 0
-515 13 0
-515 189 0
516 -515 195 0
-516 515 0
-516 -195 0
517 -13 -189 0
-517 13 0
-517 189 0
518 -517 486 0
-518 517 0
-518 -486 0
519 518 516 0
-519 -518 0
-519 -516 0
520 514 -519 0
-520 -514 0
-520 519 0
521 427 -490 0
-521 -427 0
-521 490 0
522 -427 490 0
-522 427 0
-522 -490 0
523 521 522 0
-523 -521 0
-523 -522 0
524 -520 523 0
-524 520 0
-524 -523 0
525 520 -523 0
-525 -520 0
-525 523 0
526 524 525 0
-526 -524 0
-526 -525 0
527 427 490 0
-527 -427 0
-527 -490 0
528 427 520 0
-528 -427 0
-528 -520 0
529 520 490 0
-529 -520 0
-529 -490 0
530 529 528 0
-530 -529 0
-530 -528 0
531 527 -530 0
-531 -527 0
-531 530 0
532 434 -494 0
-532 -434 0
-532 494 0
533 -434 494 0
-533 434 0
-533 -494 0
534 533 532 0
-534 -533 0
-534 -532 0
535 -531 534 0
-535 531 0
-535 -534 0
536 531 -534 0
-536 -531 0
-536 534 0
537 536 535 0
-537 -536 0
-537 -535 0
538 434 494 0
-538 -434 0
-538 -494 0
539 531 434 0
-539 -531 0
-539 -434 0
540 531 494 0
-540 -531 0
-540 -494 0
541 539 540 0
-541 -539 0
-541 -540 0
542 -541 538 0
-542 541 0
-542 -538 0
543 445 -498 0
-543 -445 0
-543 498 0
544 -445 498 0
-544 445 0
-544 -498 0
545 544 543 0
-545 -544 0
-545 -543 0
546 545 -542 0
-546 -545 0
-546 542 0
547 -545 542 0
-547 545 0
-547 -542 0
548 547 546 0
-548 -547 0
-548 -546 0
549 445 498 0
-549 -445 0
-549 -498 0
550 445 542 0
-550 -445 0
-550 -542 0
551 498 542 0
-551 -498 0
-551 -542 0
552 551 550 0
-552 -551 0
-552 -550 0
553 549 -552 0
-553 -549 0
-553 552 0
554 -502 456 0
-554 502 0
-554 -456 0
555 502 -456 0
-555 -502 0
-555 456 0
556 555 554 0
-556 -555 0
-556 -554 0
557 556 -553 0
-557 -556 0
-557 553 0
558 -556 553 0
-558 556 0
-558 -553 0
559 558 557 0
-559 -558 0
-559 -557 0
560 502 456 0
-560 -502 0
-560 -456 0
561 553 456 0
-561 -553 0
-561 -456 0
562 502 553 0
-562 -502 0
-562 -553 0
563 561 562 0
-563 -561 0
-563 -562 0
564 -563 560 0
-564 563 0
-564 -560 0
565 467 -503 0
-565 -467 0
-565 503 0
566 -467 503 0
-566 467 0
-566 -503 0
567 565 566 0
-567 -565 0
-567 -566 0
568 567 -564 0
-568 -567 0
-568 564 0
569 -567 564 0
-569 567 0
-569 -564 0
570 568 569 0
-570 -568 0
-570 -569 0
571 467 503 0
-571 -467 0
-571 -503 0
572 467 564 0
-572 -467 0
-572 -564 0
573 564 503 0
-573 -564 0
-573 -503 0
574 572 573 0
-574 -572 0
-574 -573 0
575 -574 571 0
-575 574 0
-575 -571 0
576 478 -503 0
-576 -478 0
-576 503 0
577 -478 503 0
-577 478 0
-577 -503 0
578 576 577 0
-578 -576 0
-578 -577 0
579 -575 578 0
-579 575 0
-579 -578 0
580 575 -578 0
-580 -575 0
-580 578 0
581 579 580 0
-581 -579 0
-581 -580 0
582 -67 -79 0
-582 67 0
-582 79 0
583 67 79 0
-583 -67 0
-583 -79 0
584 582 583 0
-584 -582 0
-584 -583 0
585 67 -79 0
-585 -67 0
-585 79 0
586 585 -97 0
-586 -585 0
-586 97 0
587 -585 97 0
-587 585 0
-587 -97 0
588 587 586 0
-588 -587 0
-588 -586 0
589 -585 -97 0
-589 585 0
-589 97 0
590 589 -104 0
-590 -589 0
-590 104 0
591 -589 104 0
-591 589 0
-591 -104 0
592 590 591 0
-592 -590 0
-592 -591 0
593 -589 -104 0
-593 589 0
-593 104 0
594 -115 593 0
-594 115 0
-594 -593 0
595 115 -593 0
-595 -115 0
-595 593 0
596 595 594 0
-596 -595 0
-596 -594 0
597 -115 -593 0
-597 115 0
-597 593 0
598 -120 597 0
-598 120 0
-598 -597 0
599 120 -597 0
-599 -120 0
-599 597 0
600 598 599 0
-600 -598 0
-600 -599 0
601 -120 -597 0
-601 120 0
-601 597 0
602 67 506 0
-602 -67 0
-602 -506 0
603 -67 -506 0
-603 67 0
-603 506 0
604 603 602 0
-604 -603 0
-604 -602 0
605 -584 513 0
-605 584 0
-605 -513 0
606 584 -513 0
-606 -584 0
-606 513 0
607 606 605 0
-607 -606 0
-607 -605 0
608 -67 506 0
-608 67 0
-608 -506 0
609 608 607 0
-609 -608 0
-609 -607 0
610 -608 -607 0
-610 608 0
-610 607 0
611 609 610 0
-611 -609 0
-611 -610 0
612 584 513 0
-612 -584 0
-612 -513 0
613 -67 506 0
-613 67 0
-613 -506 0
614 -613 513 0
-614 613 0
-614 -513 0
615 -67 506 0
-615 67 0
-615 -506 0
616 584 -615 0
-616 -584 0
-616 615 0
617 614 616 0
-617 -614 0
-617 -616 0
618 612 -617 0
-618 -612 0
-618 617 0
619 -588 526 0
-619 588 0
-619 -526 0
620 588 -526 0
-620 -588 0
-620 526 0
621 619 620 0
-621 -619 0
-621 -620 0
622 -618 621 0
-622 618 0
-622 -621 0
623 618 -621 0
-623 -618 0
-623 621 0
624 623 622 0
-624 -623 0
-624 -622 0
625 588 526 0
-625 -588 0
-625 -526 0
626 618 526 0
-626 -618 0
-626 -526 0
627 618 588 0
-627 -618 0
-627 -588 0
628 627 626 0
-628 -627 0
-628 -626 0
629 -628 625 0
-629 628 0
-629 -625 0
630 537 -592 0
-630 -537 0
-630 592 0
631 -537 592 0
-631 537 0
-631 -592 0
632 631 630 0
-632 -631 0
-632 -630 0
633 632 -629 0
-633 -632 0
-633 629 0
634 -632 629 0
-634 632 0
-634 -629 0
635 634 633 0
-635 -634 0
-635 -633 0
636 537 592 0
-636 -537 0
-636 -592 0
637 537 629 0
-637 -537 0
-637 -629 0
638 629 592 0
-638 -629 0
-638 -592 0
639 637 638 0
-639 -637 0
-639 -638 0
640 -639 636 0
-640 639 0
-640 -636 0
641 548 -596 0
-641 -548 0
-641 596 0
642 -548 596 0
-642 548 0
-642 -596 0
643 641 642 0
-643 -641 0
-643 -642 0
644 -640 643 0
-644 640 0
-644 -643 0
645 640 -643 0
-645 -640 0
-645 643 0
646 644 645 0
-646 -644 0
-646 -645 0
647 548 596 0
-647 -548 0
-647 -596 0
648 548 640 0
-648 -548 0
-648 -640 0
649 596 640 0
-649 -596 0
-649 -640 0
650 649 648 0
-650 -649 0
-650 -648 0
651 647 -650 0
-651 -647 0
-651 650 0
652 559 -600 0
-652 -559 0
-652 600 0
653 -559 600 0
-653 559 0
-653 -600 0
654 653 652 0
-654 -653 0
-654 -652 0
655 -651 654 0
-655 651 0
-655 -654 0
656 651 -654 0
-656 -651 0
-656 654 0
657 656 655 0
-657 -656 0
-657 -655 0
658 559 600 0
-658 -559 0
-658 -600 0
659 651 559 0
-659 -651 0
-659 -559 0
660 651 600 0
-660 -651 0
-660 -600 0
661 659 660 0
-661 -659 0
-661 -660 0
662 658 -661 0
-662 -658 0
-662 661 0
663 570 -601 0
-663 -570 0
-663 601 0
664 -570 601 0
-664 570 0
-664 -601 0
665 663 664 0
-665 -663 0
-665 -664 0
666 665 -662 0
-666 -665 0
-666 662 0
667 -665 662 0
-667 665 0
-667 -662 0
668 667 666 0
-668 -667 0
-668 -666 0
669 570 601 0
-669 -570 0
-669 -601 0
670 570 662 0
-670 -570 0
-670 -662 0
671 601 662 0
-671 -601 0
-671 -662 0
672 671 670 0
-672 -671 0
-672 -670 0
673 669 -672 0
-673 -669 0
-673 672 0
674 581 -601 0
-674 -581 0
-674 601 0
675 -581 601 0
-675 581 0
-675 -601 0
676 675 674 0
-676 -675 0
-676 -674 0
677 -673 676 0
-677 673 0
-677 -676 0
678 673 -676 0
-678 -673 0
-678 676 0
679 678 677 0
-679 -678 0
-679 -677 0
680 -604 104 0
-680 604 0
-680 -104 0
681 604 -104 0
-681 -604 0
-681 104 0
682 681 680 0
-682 -681 0
-682 -680 0
683 604 104 0
-683 -604 0
-683 -104 0
684 115 -611 0
-684 -115 0
-684 611 0
685 -115 611 0
-685 115 0
-685 -611 0
686 684 685 0
-686 -684 0
-686 -685 0
687 686 683 0
-687 -686 0
-687 -683 0
688 -686 -683 0
-688 686 0
-688 683 0
689 687 688 0
-689 -687 0
-689 -688 0
690 115 611 0
-690 -115 0
-690 -611 0
691 115 -683 0
-691 -115 0
-691 683 0
692 611 -683 0
-692 -611 0
-692 683 0
693 691 692 0
-693 -691 0
-693 -692 0
694 -693 690 0
-694 693 0
-694 -690 0
695 120 -624 0
-695 -120 0
-695 624 0
696 -120 624 0
-696 120 0
-696 -624 0
697 695 696 0
-697 -695 0
-697 -696 0
698 -694 697 0
-698 694 0
-698 -697 0
699 694 -697 0
-699 -694 0
-699 697 0
700 698 699 0
-700 -698 0
-700 -699 0
701 120 624 0
-701 -120 0
-701 -624 0
702 120 694 0
-702 -120 0
-702 -694 0
703 624 694 0
-703 -624 0
-703 -694 0
704 702 703 0
-704 -702 0
-704 -703 0
705 701 -704 0
-705 -701 0
-705 704 0
706 -13 -705 0
-706 13 0
-706 705 0
707 13 705 0
-707 -13 0
-707 -705 0
708 706 707 0
-708 -706 0
-708 -707 0
709 -708 635 0
-709 708 0
-709 -635 0
710 708 -635 0
-710 -708 0
-710 635 0
711 710 709 0
-711 -710 0
-711 -709 0
712 -13 635 0
-712 13 0
-712 -635 0
713 635 705 0
-713 -635 0
-713 -705 0
714 -13 705 0
-714 13 0
-714 -705 0
715 714 713 0
-715 -714 0
-715 -713 0
716 -715 712 0
-716 715 0
-716 -712 0
717 25 -716 0
-717 -25 0
-717 716 0
718 -25 716 0
-718 25 0
-718 -716 0
719 718 717 0
-719 -718 0
-719 -717 0
720 646 -719 0
-720 -646 0
-720 719 0
721 -646 719 0
-721 646 0
-721 -719 0
722 721 720 0
-722 -721 0
-722 -720 0
723 25 646 0
-723 -25 0
-723 -646 0
724 646 716 0
-724 -646 0
-724 -716 0
725 25 716 0
-725 -25 0
-725 -716 0
726 724 725 0
-726 -724 0
-726 -725 0
727 -726 723 0
-727 726 0
-727 -723 0
728 -727 43 0
-728 727 0
-728 -43 0
729 727 -43 0
-729 -727 0
-729 43 0
730 728 729 0
-730 -728 0
-730 -729 0
731 -730 657 0
-731 730 0
-731 -657 0
732 730 -657 0
-732 -730 0
-732 657 0
733 732 731 0
-733 -732 0
-733 -731 0
734 657 43 0
-734 -657 0
-734 -43 0
735 727 657 0
-735 -727 0
-735 -657 0
736 727 43 0
-736 -727 0
-736 -43 0
737 735 736 0
-737 -735 0
-737 -736 0
738 -737 734 0
-738 737 0
-738 -734 0
739 -738 50 0
-739 738 0
-739 -50 0
740 738 -50 0
-740 -738 0
-740 50 0
741 740 739 0
-741 -740 0
-741 -739 0
742 668 -741 0
-742 -668 0
-742 741 0
743 -668 741 0
-743 668 0
-743 -741 0
744 743 742 0
-744 -743 0
-744 -742 0
745 668 50 0
-745 -668 0
-745 -50 0
746 738 668 0
-746 -738 0
-746 -668 0
747 738 50 0
-747 -738 0
-747 -50 0
748 747 746 0
-748 -747 0
-748 -746 0
749 -748 745 0
-749 748 0
-749 -745 0
750 61 -749 0
-750 -61 0
-750 749 0
751 -61 749 0
-751 61 0
-751 -749 0
752 751 750 0
-752 -751 0
-752 -750 0
753 -752 679 0
-753 752 0
-753 -679 0
754 752 -679 0
-754 -752 0
-754 679 0
755 754 753 0
-755 -754 0
-755 -753 0
756 61 679 0
-756 -61 0
-756 -679 0
757 679 749 0
-757 -679 0
-757 -749 0
758 61 749 0
-758 -61 0
-758 -749 0
759 758 757 0
-759 -758 0
-759 -757 0
760 -759 756 0
-760 759 0
-760 -756 0
761 66 -760 0
-761 -66 0
-761 760 0
762 -66 760 0
-762 66 0
-762 -760 0
763 762 761 0
-763 -762 0
-763 -761 0
764 66 760 0
-764 -66 0
-764 -760 0
-765 67 0
765 -67 0
-766 -79 0
766 79 0
-767 -97 0
767 97 0
-768 -682 0
768 682 0
-769 -689 0
769 689 0
-770 -700 0
770 700 0
-771 -711 0
771 711 0
-772 -722 0
772 722 0
-773 -733 0
773 733 0
-774 -744 0
774 744 0
-775 -755 0
775 755 0
-776 -763 0
776 763 0
765 0
766 0
767 0
768 0
-769 0
770 0
-771 0
772 0
-773 0
-774 0
-775 0
-776 0
